EjemplosPL/data/tareas.txt
02:30,01:20,25
04:05,02:30,45
07:15,01:00,70
08:30,01:30,10
09:00,03:00,15
11:00,02:00,20
13:30,03:10,30
17:10,04:00,35
19:00,01:00,20
20:00,02:30,40
20:30,00:30,50
21:00,00:45,55
22:00,01:40,15
23:10,00:40,22
23:30,00:25,30